nN = 8;
nR = 24;
nH = 1;

a = [[25, 23, 20, 16, 19, 22, 20, 16, 15, 22, 15, 21, 20, 23, 20, 22, 19, 25, 25, 24, 21, 17, 23, 17], [16, 19, 22, 22, 19, 23, 17, 24, 15, 24, 18, 19, 20, 24, 25, 25, 19, 24, 18, 21, 16, 25, 15, 20], [20, 18, 23, 23, 23, 17, 19, 16, 24, 24, 17, 23, 19, 22, 23, 25, 23, 18, 19, 24, 20, 17, 23, 23], [16, 16, 15, 23, 15, 15, 25, 22, 17, 20, 19, 16, 17, 17, 20, 17, 17, 18, 16, 18, 15, 25, 22, 17], [17, 23, 21, 20, 24, 22, 25, 17, 22, 20, 16, 22, 21, 23, 24, 15, 22, 25, 18, 19, 19, 17, 22, 23], [24, 21, 23, 17, 21, 19, 19, 17, 18, 24, 15, 15, 17, 18, 15, 24, 19, 21, 23, 24, 17, 20, 16, 21], [18, 21, 22, 23, 22, 15, 18, 15, 21, 22, 15, 23, 21, 25, 25, 23, 20, 16, 25, 17, 15, 15, 18, 16], [19, 24, 18, 17, 21, 18, 24, 25, 18, 23, 21, 15, 24, 23, 18, 18, 23, 23, 16, 20, 20, 19, 25, 21]];
c = [[[0, 0, 0, 0, 0, 0, 0, 0, 0, 0, 0, 0, 0, 0, 0, 0, 0, 0, 0, 0, 0, 0, 0, 0], [34, 37, 43, 32, 50, 31, 31, 41, 40, 45, 31, 33, 42, 50, 32, 46, 48, 31, 45, 50, 36, 37, 38, 34], [47, 46, 34, 48, 50, 32, 46, 33, 31, 47, 40, 40, 44, 46, 32, 40, 38, 44, 32, 50, 43, 41, 49, 43], [38, 37, 45, 48, 40, 42, 36, 47, 42, 34, 42, 31, 30, 32, 39, 37, 43, 50, 34, 33, 34, 43, 36, 31], [40, 50, 34, 33, 37, 45, 48, 40, 30, 31, 50, 48, 32, 35, 33, 34, 34, 34, 36, 50, 41, 48, 35, 30], [35, 31, 45, 42, 47, 47, 32, 41, 48, 41, 47, 34, 45, 39, 37, 48, 36, 47, 37, 39, 42, 40, 41, 43], [41, 30, 40, 44, 38, 38, 46, 42, 41, 43, 30, 43, 50, 31, 37, 32, 35, 49, 30, 47, 31, 50, 45, 31], [44, 43, 37, 31, 38, 46, 48, 31, 40, 47, 35, 37, 30, 32, 46, 45, 30, 50, 43, 30, 37, 50, 37, 34]], [[0, 0, 0, 0, 0, 0, 0, 0, 0, 0, 0, 0, 0, 0, 0, 0, 0, 0, 0, 0, 0, 0, 0, 0], [0, 0, 0, 0, 0, 0, 0, 0, 0, 0, 0, 0, 0, 0, 0, 0, 0, 0, 0, 0, 0, 0, 0, 0], [47, 39, 38, 49, 45, 47, 38, 32, 31, 43, 49, 49, 31, 44, 47, 48, 32, 50, 47, 38, 49, 44, 31, 46], [37, 42, 38, 42, 50, 47, 46, 45, 32, 47, 31, 37, 47, 33, 41, 36, 48, 40, 45, 41, 33, 45, 44, 40], [42, 45, 35, 36, 31, 33, 38, 48, 36, 47, 36, 38, 32, 37, 42, 41, 34, 41, 31, 38, 45, 40, 48, 48], [39, 41, 40, 36, 33, 41, 49, 31, 34, 47, 47, 33, 31, 41, 44, 47, 40, 30, 46, 31, 30, 44, 46, 44], [47, 50, 33, 41, 46, 47, 42, 34, 36, 33, 32, 30, 46, 48, 34, 37, 33, 35, 33, 47, 34, 34, 34, 35], [40, 49, 49, 47, 50, 48, 37, 35, 45, 34, 41, 41, 42, 36, 46, 31, 41, 50, 47, 31, 33, 37, 37, 48]], [[0, 0, 0, 0, 0, 0, 0, 0, 0, 0, 0, 0, 0, 0, 0, 0, 0, 0, 0, 0, 0, 0, 0, 0], [0, 0, 0, 0, 0, 0, 0, 0, 0, 0, 0, 0, 0, 0, 0, 0, 0, 0, 0, 0, 0, 0, 0, 0], [0, 0, 0, 0, 0, 0, 0, 0, 0, 0, 0, 0, 0, 0, 0, 0, 0, 0, 0, 0, 0, 0, 0, 0], [31, 44, 44, 47, 37, 38, 41, 40, 34, 47, 36, 38, 41, 45, 48, 38, 39, 44, 35, 48, 36, 40, 31, 34], [50, 43, 46, 41, 43, 50, 43, 48, 32, 45, 36, 41, 43, 50, 37, 30, 50, 39, 30, 50, 35, 40, 39, 47], [38, 40, 35, 45, 35, 49, 42, 30, 31, 33, 36, 41, 36, 49, 35, 43, 44, 38, 37, 46, 50, 39, 32, 35], [44, 49, 40, 48, 42, 34, 32, 41, 31, 33, 48, 33, 49, 43, 46, 30, 45, 33, 38, 47, 36, 32, 46, 33], [45, 31, 45, 33, 48, 33, 42, 35, 35, 31, 38, 34, 37, 39, 39, 31, 34, 41, 38, 38, 39, 46, 30, 49]], [[0, 0, 0, 0, 0, 0, 0, 0, 0, 0, 0, 0, 0, 0, 0, 0, 0, 0, 0, 0, 0, 0, 0, 0], [0, 0, 0, 0, 0, 0, 0, 0, 0, 0, 0, 0, 0, 0, 0, 0, 0, 0, 0, 0, 0, 0, 0, 0], [0, 0, 0, 0, 0, 0, 0, 0, 0, 0, 0, 0, 0, 0, 0, 0, 0, 0, 0, 0, 0, 0, 0, 0], [0, 0, 0, 0, 0, 0, 0, 0, 0, 0, 0, 0, 0, 0, 0, 0, 0, 0, 0, 0, 0, 0, 0, 0], [38, 44, 32, 43, 41, 33, 34, 33, 49, 45, 49, 50, 49, 46, 31, 43, 48, 39, 43, 40, 32, 47, 38, 43], [43, 42, 30, 39, 38, 34, 46, 30, 46, 34, 45, 46, 48, 46, 43, 34, 50, 48, 50, 40, 31, 33, 48, 35], [42, 38, 37, 36, 35, 32, 47, 46, 41, 42, 44, 36, 38, 38, 47, 37, 41, 38, 46, 34, 48, 37, 50, 49], [41, 45, 41, 45, 40, 34, 43, 32, 40, 42, 42, 34, 31, 33, 47, 50, 31, 33, 44, 37, 45, 48, 50, 48]], [[0, 0, 0, 0, 0, 0, 0, 0, 0, 0, 0, 0, 0, 0, 0, 0, 0, 0, 0, 0, 0, 0, 0, 0], [0, 0, 0, 0, 0, 0, 0, 0, 0, 0, 0, 0, 0, 0, 0, 0, 0, 0, 0, 0, 0, 0, 0, 0], [0, 0, 0, 0, 0, 0, 0, 0, 0, 0, 0, 0, 0, 0, 0, 0, 0, 0, 0, 0, 0, 0, 0, 0], [0, 0, 0, 0, 0, 0, 0, 0, 0, 0, 0, 0, 0, 0, 0, 0, 0, 0, 0, 0, 0, 0, 0, 0], [0, 0, 0, 0, 0, 0, 0, 0, 0, 0, 0, 0, 0, 0, 0, 0, 0, 0, 0, 0, 0, 0, 0, 0], [33, 35, 47, 36, 42, 43, 31, 33, 41, 39, 48, 40, 41, 36, 42, 43, 49, 36, 39, 44, 47, 48, 42, 49], [41, 48, 47, 44, 32, 36, 46, 42, 32, 30, 43, 35, 47, 43, 41, 35, 49, 33, 31, 49, 36, 34, 33, 35], [37, 49, 39, 45, 36, 50, 30, 39, 34, 35, 41, 40, 50, 30, 44, 43, 30, 46, 45, 38, 44, 42, 34, 46]], [[0, 0, 0, 0, 0, 0, 0, 0, 0, 0, 0, 0, 0, 0, 0, 0, 0, 0, 0, 0, 0, 0, 0, 0], [0, 0, 0, 0, 0, 0, 0, 0, 0, 0, 0, 0, 0, 0, 0, 0, 0, 0, 0, 0, 0, 0, 0, 0], [0, 0, 0, 0, 0, 0, 0, 0, 0, 0, 0, 0, 0, 0, 0, 0, 0, 0, 0, 0, 0, 0, 0, 0], [0, 0, 0, 0, 0, 0, 0, 0, 0, 0, 0, 0, 0, 0, 0, 0, 0, 0, 0, 0, 0, 0, 0, 0], [0, 0, 0, 0, 0, 0, 0, 0, 0, 0, 0, 0, 0, 0, 0, 0, 0, 0, 0, 0, 0, 0, 0, 0], [0, 0, 0, 0, 0, 0, 0, 0, 0, 0, 0, 0, 0, 0, 0, 0, 0, 0, 0, 0, 0, 0, 0, 0], [38, 42, 31, 39, 43, 37, 38, 40, 42, 47, 44, 39, 44, 43, 46, 30, 44, 38, 33, 48, 40, 32, 48, 44], [43, 40, 37, 47, 47, 34, 47, 32, 47, 49, 38, 42, 34, 33, 34, 30, 40, 36, 31, 30, 44, 49, 42, 36]], [[0, 0, 0, 0, 0, 0, 0, 0, 0, 0, 0, 0, 0, 0, 0, 0, 0, 0, 0, 0, 0, 0, 0, 0], [0, 0, 0, 0, 0, 0, 0, 0, 0, 0, 0, 0, 0, 0, 0, 0, 0, 0, 0, 0, 0, 0, 0, 0], [0, 0, 0, 0, 0, 0, 0, 0, 0, 0, 0, 0, 0, 0, 0, 0, 0, 0, 0, 0, 0, 0, 0, 0], [0, 0, 0, 0, 0, 0, 0, 0, 0, 0, 0, 0, 0, 0, 0, 0, 0, 0, 0, 0, 0, 0, 0, 0], [0, 0, 0, 0, 0, 0, 0, 0, 0, 0, 0, 0, 0, 0, 0, 0, 0, 0, 0, 0, 0, 0, 0, 0], [0, 0, 0, 0, 0, 0, 0, 0, 0, 0, 0, 0, 0, 0, 0, 0, 0, 0, 0, 0, 0, 0, 0, 0], [0, 0, 0, 0, 0, 0, 0, 0, 0, 0, 0, 0, 0, 0, 0, 0, 0, 0, 0, 0, 0, 0, 0, 0], [37, 33, 43, 34, 38, 36, 49, 35, 32, 38, 47, 34, 49, 31, 38, 36, 49, 50, 41, 47, 43, 36, 35, 44]], [[0, 0, 0, 0, 0, 0, 0, 0, 0, 0, 0, 0, 0, 0, 0, 0, 0, 0, 0, 0, 0, 0, 0, 0], [0, 0, 0, 0, 0, 0, 0, 0, 0, 0, 0, 0, 0, 0, 0, 0, 0, 0, 0, 0, 0, 0, 0, 0], [0, 0, 0, 0, 0, 0, 0, 0, 0, 0, 0, 0, 0, 0, 0, 0, 0, 0, 0, 0, 0, 0, 0, 0], [0, 0, 0, 0, 0, 0, 0, 0, 0, 0, 0, 0, 0, 0, 0, 0, 0, 0, 0, 0, 0, 0, 0, 0], [0, 0, 0, 0, 0, 0, 0, 0, 0, 0, 0, 0, 0, 0, 0, 0, 0, 0, 0, 0, 0, 0, 0, 0], [0, 0, 0, 0, 0, 0, 0, 0, 0, 0, 0, 0, 0, 0, 0, 0, 0, 0, 0, 0, 0, 0, 0, 0], [0, 0, 0, 0, 0, 0, 0, 0, 0, 0, 0, 0, 0, 0, 0, 0, 0, 0, 0, 0, 0, 0, 0, 0], [0, 0, 0, 0, 0, 0, 0, 0, 0, 0, 0, 0, 0, 0, 0, 0, 0, 0, 0, 0, 0, 0, 0, 0]]];

q = [[[8], [18], [22], [5], [11], [11], [22], [11], [17], [22], [11], [20], [13], [13], [7], [22], [15], [22], [24], [8], [8], [24], [18], [8]], [[24], [14], [11], [15], [24], [8], [10], [15], [19], [25], [6], [13], [10], [25], [19], [24], [13], [12], [5], [18], [10], [24], [8], [5]], [[22], [22], [21], [22], [13], [16], [21], [5], [25], [13], [12], [9], [24], [6], [22], [24], [11], [21], [11], [14], [12], [10], [20], [6]], [[13], [8], [19], [12], [19], [18], [10], [21], [5], [9], [11], [9], [22], [8], [12], [13], [9], [25], [19], [24], [22], [6], [19], [14]], [[25], [16], [13], [5], [11], [8], [7], [8], [25], [20], [24], [20], [11], [6], [10], [10], [6], [22], [10], [10], [13], [21], [5], [19]], [[19], [19], [5], [11], [22], [24], [18], [11], [6], [13], [24], [24], [22], [6], [22], [5], [14], [6], [16], [11], [6], [8], [18], [10]], [[24], [10], [9], [10], [6], [15], [7], [13], [20], [8], [7], [9], [24], [9], [21], [9], [11], [19], [10], [5], [23], [20], [5], [21]], [[6], [9], [9], [5], [12], [10], [16], [15], [19], [18], [20], [18], [16], [21], [11], [12], [22], [16], [21], [25], [7], [14], [16], [10]]];
Q = [[36], [35], [38], [34], [32], [34], [31], [34]];
